ilp_joint/output/symbiosis_ilp.lp
Maximize
  2.97468e-05 Z_374_0_0 + 0.00408751542742543 Z_374_0_1
   + 0.8591213460944879 Z_374_0_2 + 0.00292470265369044 Z_374_0_3
   + 0.0338366890142687 Z_374_0_4
Subject To
 constraint1_3740: Z_374_0_0 + Z_374_0_1 + Z_374_0_2 + Z_374_0_3
   + Z_374_0_4 <= 1
 constraint2_3740: Z_374_0_0 <= 1
 constraint2_3741: Z_374_0_1 <= 1
 constraint2_3742: Z_374_0_2 <= 1
 constraint2_3743: Z_374_0_3 <= 1
Bounds
Binaries
 Z_374_0_0 Z_374_0_1 Z_374_0_2 Z_374_0_3 Z_374_0_4
End
