ilp_joint/output/symbiosis_ilp.mps
NAME symbiosis_srl_ilp
* Max problem is converted into Min one
ROWS
 N  OBJ
 L  constraint1_3740
 L  constraint2_3740
 L  constraint2_3741
 L  constraint2_3742
 L  constraint2_3743
COLUMNS
    MARKER    'MARKER'                 'INTORG'
    Z_374_0_0  OBJ       -2.9746810127628243e-05
    Z_374_0_0  constraint1_3740  1
    Z_374_0_0  constraint2_3740  1
    Z_374_0_1  OBJ       -4.0875154274254265e-03
    Z_374_0_1  constraint1_3740  1
    Z_374_0_1  constraint2_3741  1
    Z_374_0_2  OBJ       -8.5912134609448787e-01
    Z_374_0_2  constraint1_3740  1
    Z_374_0_2  constraint2_3742  1
    Z_374_0_3  OBJ       -2.9247026536904424e-03
    Z_374_0_3  constraint1_3740  1
    Z_374_0_3  constraint2_3743  1
    Z_374_0_4  OBJ       -3.3836689014268742e-02
    Z_374_0_4  constraint1_3740  1
    MARKER    'MARKER'                 'INTEND'
RHS
    RHS1      constraint1_3740  1
    RHS1      constraint2_3740  1
    RHS1      constraint2_3741  1
    RHS1      constraint2_3742  1
    RHS1      constraint2_3743  1
BOUNDS
 UP BND1      Z_374_0_0  1
 UP BND1      Z_374_0_1  1
 UP BND1      Z_374_0_2  1
 UP BND1      Z_374_0_3  1
 UP BND1      Z_374_0_4  1
ENDATA
