ilp_joint/output/symbiosis_ilp.sol
# Solution for model symbiosis_srl_ilp
# Objective value = 8.4245799193695114e-01
Z_591_0_0 0
Z_591_0_1 0
Z_591_0_2 1
Z_591_0_3 0
Z_591_0_4 0
